c 
c G(n,p) graph
c graph gen seed     : 3728
c number of vertices : 30
c max number of edges: 500
c edge probability   : 0.400000
c data structure     : sparse
c
c           Graph Stats
c number of vertices  : 30
c nonisolated vertices: 30
c number of edges     : 161
c edge density        : 0.370115
c max degree          : 15
c avg degree          : 10.73
c min degree          : 6
p col 30 161
e 1 29
e 1 22
e 1 19
e 1 11
e 1 9
e 1 5
e 1 2
e 2 29
e 2 26
e 2 25
e 2 23
e 2 22
e 2 20
e 2 19
e 2 18
e 2 16
e 2 11
e 2 9
e 2 8
e 3 29
e 3 25
e 3 24
e 3 19
e 3 14
e 3 9
e 3 8
e 3 7
e 3 4
e 4 29
e 4 26
e 4 24
e 4 23
e 4 21
e 4 19
e 4 17
e 4 14
e 4 11
e 4 9
e 4 6
e 5 29
e 5 27
e 5 25
e 5 19
e 5 18
e 5 15
e 5 14
e 5 11
e 5 10
e 5 8
e 5 7
e 5 6
e 6 30
e 6 28
e 6 26
e 6 25
e 6 18
e 6 16
e 6 11
e 7 22
e 7 20
e 7 17
e 7 16
e 7 14
e 7 13
e 7 11
e 7 10
e 8 30
e 8 27
e 8 24
e 8 23
e 8 22
e 8 21
e 8 18
e 8 17
e 8 14
e 8 13
e 8 10
e 9 30
e 9 25
e 9 21
e 9 18
e 9 17
e 9 16
e 9 15
e 9 13
e 9 12
e 9 11
e 9 10
e 10 30
e 10 26
e 10 25
e 10 21
e 10 13
e 10 12
e 10 11
e 11 25
e 11 22
e 11 19
e 11 18
e 11 17
e 11 14
e 11 12
e 12 29
e 12 27
e 12 23
e 12 21
e 12 18
e 12 14
e 12 13
e 13 30
e 13 28
e 13 25
e 13 24
e 13 15
e 14 30
e 14 24
e 14 22
e 14 19
e 14 16
e 14 15
e 15 30
e 15 28
e 15 24
e 15 22
e 16 30
e 16 24
e 16 19
e 16 17
e 17 29
e 17 26
e 17 25
e 17 24
e 17 22
e 18 28
e 18 27
e 18 26
e 18 24
e 18 19
e 19 24
e 19 22
e 19 21
e 19 20
e 20 29
e 20 27
e 20 21
e 21 30
e 21 29
e 21 24
e 21 23
e 22 24
e 22 23
e 23 29
e 25 30
e 25 27
e 26 30
e 26 29
e 26 28
e 26 27
e 27 30
e 28 30
e 28 29
